
Gurobi 10.0.1 (linux64, Java) logging started Sun 23 Apr 2023 04:42:14 PM CEST

Set parameter Username
Academic license - for non-commercial use only - expires 2024-02-12
Set parameter Presolve to value 0
Set parameter Method to value 0
Gurobi Optimizer version 10.0.1 build v10.0.1rc0 (linux64)

CPU model: AMD E2-7110 APU with AMD Radeon R2 Graphics, instruction set [SSE2|AVX]
Thread count: 4 physical cores, 4 logical processors, using up to 4 threads

Optimize a model with 76 rows, 1275 columns and 2550 nonzeros
Model fingerprint: 0x7328fc9e
Coefficient statistics:
  Matrix range     [1e+00, 1e+00]
  Objective range  [1e-02, 6e-01]
  Bounds range     [0e+00, 0e+00]
  RHS range        [5e+03, 2e+04]
Iteration    Objective       Primal Inf.    Dual Inf.      Time
       0    0.0000000e+00   4.720000e+05   1.275000e+09      0s
     244    2.1880000e+04   0.000000e+00   0.000000e+00      0s

Solved in 244 iterations and 0.01 seconds (0.00 work units)
Optimal objective  2.188000000e+04
Gurobi Optimizer version 10.0.1 build v10.0.1rc0 (linux64)

CPU model: AMD E2-7110 APU with AMD Radeon R2 Graphics, instruction set [SSE2|AVX]
Thread count: 4 physical cores, 4 logical processors, using up to 4 threads

Optimize a model with 76 rows, 1275 columns and 2550 nonzeros
Coefficient statistics:
  Matrix range     [1e+00, 1e+00]
  Objective range  [1e-02, 6e-01]
  Bounds range     [0e+00, 0e+00]
  RHS range        [5e+03, 2e+04]

Solved in 0 iterations and 0.00 seconds (0.00 work units)
Optimal objective  2.188000000e+04
